p cnf 393 1284
1 2 3 4 0
-1 -2 0
-1 -3 0
-1 -4 0
-2 -3 0
-2 -4 0
-3 -4 0
5 -6 -7 0
6 -5 -7 0
-5 -6 7 0
6 5 7 0
-1 -7 0
6 -5 -8 0
5 -6 -8 0
8 -6 -5 0
8 6 5 0
-2 8 0
-3 8 0
-4 8 0
9 -10 -11 0
10 -9 -11 0
-9 -10 11 0
10 9 11 0
-1 -11 0
10 -12 -13 0
12 -10 -13 0
13 -10 -12 0
13 10 12 0
-2 13 0
-9 14 0
-12 14 0
-15 14 0
9 12 15 -14 0
10 -14 -16 0
-10 14 -16 0
-10 -14 16 0
10 14 16 0
-3 16 0
9 17 0
12 17 0
15 17 0
-9 -12 -15 -17 0
-10 17 -18 0
10 -17 -18 0
18 -17 -10 0
10 17 18 0
-4 -18 0
12 -19 -20 0
19 -12 -20 0
-12 -19 20 0
12 19 20 0
-1 -20 0
19 -15 -21 0
15 -19 -21 0
21 -19 -15 0
21 19 15 0
-2 21 0
-12 22 0
-15 22 0
12 15 -22 0
19 -22 -23 0
-19 22 -23 0
-19 -22 23 0
19 22 23 0
-3 23 0
12 24 0
15 24 0
-12 -15 -24 0
-19 24 -25 0
19 -24 -25 0
25 -24 -19 0
19 24 25 0
-4 -25 0
15 -26 -27 0
26 -15 -27 0
-15 -26 27 0
15 26 27 0
-1 -27 0
-12 26 -28 0
12 -26 -28 0
28 -26 -12 0
28 26 12 0
-2 28 0
26 -22 -29 0
22 -26 -29 0
-22 -26 29 0
26 22 29 0
-3 29 0
24 -26 -30 0
26 -24 -30 0
30 -24 -26 0
26 24 30 0
-4 -30 0
31 -32 -33 0
32 -31 -33 0
-31 -32 33 0
32 31 33 0
-1 -33 0
32 -34 -35 0
34 -32 -35 0
35 -32 -34 0
35 32 34 0
-2 35 0
-9 36 0
-12 36 0
-15 36 0
-31 36 0
-34 36 0
9 12 15 31 34 -36 0
32 -36 -37 0
-32 36 -37 0
-32 -36 37 0
32 36 37 0
-3 37 0
9 38 0
12 38 0
15 38 0
31 38 0
34 38 0
-39 0
-32 38 -40 0
32 -38 -40 0
40 -38 -32 0
32 38 40 0
-4 -40 0
34 -41 -42 0
41 -34 -42 0
-34 -41 42 0
34 41 42 0
-1 -42 0
-9 41 -43 0
9 -41 -43 0
43 -41 -9 0
43 41 9 0
-2 43 0
-9 44 0
-12 44 0
-15 44 0
-34 44 0
9 12 15 34 -44 0
41 -44 -45 0
-41 44 -45 0
-41 -44 45 0
41 44 45 0
-3 45 0
9 46 0
12 46 0
15 46 0
34 46 0
-47 0
-41 46 -48 0
41 -46 -48 0
48 -46 -41 0
41 46 48 0
-4 -48 0
49 -50 -51 0
50 -49 -51 0
-49 -50 51 0
50 49 51 0
-1 -51 0
50 -52 -53 0
52 -50 -53 0
53 -50 -52 0
53 50 52 0
-2 53 0
-49 54 0
-52 54 0
-55 54 0
-56 54 0
-57 54 0
-58 54 0
49 52 55 56 57 58 -54 0
50 -54 -59 0
-50 54 -59 0
-50 -54 59 0
50 54 59 0
-3 59 0
49 60 0
52 60 0
55 60 0
56 60 0
57 60 0
58 60 0
-61 0
-50 60 -62 0
50 -60 -62 0
62 -60 -50 0
50 60 62 0
-4 -62 0
52 -63 -64 0
63 -52 -64 0
-52 -63 64 0
52 63 64 0
-1 -64 0
63 -55 -65 0
55 -63 -65 0
65 -63 -55 0
65 63 55 0
-2 65 0
-52 66 0
-55 66 0
-56 66 0
-57 66 0
-58 66 0
52 55 56 57 58 -66 0
63 -66 -67 0
-63 66 -67 0
-63 -66 67 0
63 66 67 0
-3 67 0
52 68 0
55 68 0
56 68 0
57 68 0
58 68 0
-69 0
-63 68 -70 0
63 -68 -70 0
70 -68 -63 0
63 68 70 0
-4 -70 0
55 -71 -72 0
71 -55 -72 0
-55 -71 72 0
55 71 72 0
-1 -72 0
71 -56 -73 0
56 -71 -73 0
73 -71 -56 0
73 71 56 0
-2 73 0
-55 74 0
-56 74 0
-57 74 0
-58 74 0
55 56 57 58 -74 0
71 -74 -75 0
-71 74 -75 0
-71 -74 75 0
71 74 75 0
-3 75 0
55 76 0
56 76 0
57 76 0
58 76 0
-77 0
-71 76 -78 0
71 -76 -78 0
78 -76 -71 0
71 76 78 0
-4 -78 0
56 -79 -80 0
79 -56 -80 0
-56 -79 80 0
56 79 80 0
-1 -80 0
79 -57 -81 0
57 -79 -81 0
81 -79 -57 0
81 79 57 0
-2 81 0
79 -74 -82 0
74 -79 -82 0
-74 -79 82 0
79 74 82 0
-3 82 0
76 -79 -83 0
79 -76 -83 0
83 -76 -79 0
79 76 83 0
-4 -83 0
57 -84 -85 0
84 -57 -85 0
-57 -84 85 0
57 84 85 0
-1 -85 0
84 -58 -86 0
58 -84 -86 0
86 -84 -58 0
86 84 58 0
-2 86 0
-57 87 0
-58 87 0
-55 87 0
-56 87 0
57 58 55 56 -87 0
84 -87 -88 0
-84 87 -88 0
-84 -87 88 0
84 87 88 0
-3 88 0
57 89 0
58 89 0
55 89 0
56 89 0
-90 0
-84 89 -91 0
84 -89 -91 0
91 -89 -84 0
84 89 91 0
-4 -91 0
58 -92 -93 0
92 -58 -93 0
-58 -92 93 0
58 92 93 0
-1 -93 0
-55 92 -94 0
55 -92 -94 0
94 -92 -55 0
94 92 55 0
-2 94 0
92 -74 -95 0
74 -92 -95 0
-74 -92 95 0
92 74 95 0
-3 95 0
76 -92 -96 0
92 -76 -96 0
96 -76 -92 0
92 76 96 0
-4 -96 0
97 -98 -99 0
98 -97 -99 0
-97 -98 99 0
98 97 99 0
-1 -99 0
98 -100 -101 0
100 -98 -101 0
101 -98 -100 0
101 98 100 0
-2 101 0
-97 102 0
-100 102 0
-103 102 0
-104 102 0
-105 102 0
-106 102 0
107 0
98 -102 -108 0
-98 102 -108 0
-98 -102 108 0
98 102 108 0
-3 108 0
97 109 0
100 109 0
103 109 0
104 109 0
105 109 0
106 109 0
-110 0
-98 109 -111 0
98 -109 -111 0
111 -109 -98 0
98 109 111 0
-4 -111 0
100 -112 -113 0
112 -100 -113 0
-100 -112 113 0
100 112 113 0
-1 -113 0
112 -103 -114 0
103 -112 -114 0
114 -112 -103 0
114 112 103 0
-2 114 0
-100 115 0
-103 115 0
-104 115 0
-105 115 0
-106 115 0
100 103 104 105 106 -115 0
112 -115 -116 0
-112 115 -116 0
-112 -115 116 0
112 115 116 0
-3 116 0
100 117 0
103 117 0
104 117 0
105 117 0
106 117 0
-118 0
-112 117 -119 0
112 -117 -119 0
119 -117 -112 0
112 117 119 0
-4 -119 0
103 -120 -121 0
120 -103 -121 0
-103 -120 121 0
103 120 121 0
-1 -121 0
120 -104 -122 0
104 -120 -122 0
122 -120 -104 0
122 120 104 0
-2 122 0
-103 123 0
-104 123 0
-105 123 0
-106 123 0
103 104 105 106 -123 0
120 -123 -124 0
-120 123 -124 0
-120 -123 124 0
120 123 124 0
-3 124 0
103 125 0
104 125 0
105 125 0
106 125 0
-126 0
-120 125 -127 0
120 -125 -127 0
127 -125 -120 0
120 125 127 0
-4 -127 0
104 -128 -129 0
128 -104 -129 0
-104 -128 129 0
104 128 129 0
-1 -129 0
128 -105 -130 0
105 -128 -130 0
130 -128 -105 0
130 128 105 0
-2 130 0
128 -123 -131 0
123 -128 -131 0
-123 -128 131 0
128 123 131 0
-3 131 0
125 -128 -132 0
128 -125 -132 0
132 -125 -128 0
128 125 132 0
-4 -132 0
105 -133 -134 0
133 -105 -134 0
-105 -133 134 0
105 133 134 0
-1 -134 0
133 -106 -135 0
106 -133 -135 0
135 -133 -106 0
135 133 106 0
-2 135 0
133 -123 -136 0
123 -133 -136 0
-123 -133 136 0
133 123 136 0
-3 136 0
125 -133 -137 0
133 -125 -137 0
137 -125 -133 0
133 125 137 0
-4 -137 0
106 -138 -139 0
138 -106 -139 0
-106 -138 139 0
106 138 139 0
-1 -139 0
-103 138 -140 0
103 -138 -140 0
140 -138 -103 0
140 138 103 0
-2 140 0
138 -123 -141 0
123 -138 -141 0
-123 -138 141 0
138 123 141 0
-3 141 0
125 -138 -142 0
138 -125 -142 0
142 -125 -138 0
138 125 142 0
-4 -142 0
143 -144 -145 0
144 -143 -145 0
-143 -144 145 0
144 143 145 0
-1 -145 0
144 -146 -147 0
146 -144 -147 0
147 -144 -146 0
147 144 146 0
-2 147 0
-5 148 0
-143 148 0
-146 148 0
-149 148 0
5 143 146 149 -148 0
144 -148 -150 0
-144 148 -150 0
-144 -148 150 0
144 148 150 0
-3 150 0
5 151 0
143 151 0
146 151 0
149 151 0
-152 0
-144 151 -153 0
144 -151 -153 0
153 -151 -144 0
144 151 153 0
-4 -153 0
146 -154 -155 0
154 -146 -155 0
-146 -154 155 0
146 154 155 0
-1 -155 0
154 -149 -156 0
149 -154 -156 0
156 -154 -149 0
156 154 149 0
-2 156 0
-5 157 0
-146 157 0
-149 157 0
5 146 149 -157 0
154 -157 -158 0
-154 157 -158 0
-154 -157 158 0
154 157 158 0
-3 158 0
5 159 0
146 159 0
149 159 0
-5 -146 -149 -159 0
-154 159 -160 0
154 -159 -160 0
160 -159 -154 0
154 159 160 0
-4 -160 0
149 -161 -162 0
161 -149 -162 0
-149 -161 162 0
149 161 162 0
-1 -162 0
-5 161 -163 0
5 -161 -163 0
163 -161 -5 0
163 161 5 0
-2 163 0
-5 164 0
-149 164 0
5 149 -164 0
161 -164 -165 0
-161 164 -165 0
-161 -164 165 0
161 164 165 0
-3 165 0
5 166 0
149 166 0
-5 -149 -166 0
-161 166 -167 0
161 -166 -167 0
167 -166 -161 0
161 166 167 0
-4 -167 0
168 -169 -170 0
169 -168 -170 0
-168 -169 170 0
169 168 170 0
-1 -170 0
169 -171 -172 0
171 -169 -172 0
172 -169 -171 0
172 169 171 0
-2 172 0
-168 173 0
-171 173 0
-174 173 0
-175 173 0
-176 173 0
-177 173 0
178 0
169 -173 -179 0
-169 173 -179 0
-169 -173 179 0
169 173 179 0
-3 179 0
168 180 0
171 180 0
174 180 0
175 180 0
176 180 0
177 180 0
-181 0
-169 180 -182 0
169 -180 -182 0
182 -180 -169 0
169 180 182 0
-4 -182 0
171 -183 -184 0
183 -171 -184 0
-171 -183 184 0
171 183 184 0
-1 -184 0
183 -174 -185 0
174 -183 -185 0
185 -183 -174 0
185 183 174 0
-2 185 0
-171 186 0
-174 186 0
-175 186 0
-176 186 0
-177 186 0
171 174 175 176 177 -186 0
183 -186 -187 0
-183 186 -187 0
-183 -186 187 0
183 186 187 0
-3 187 0
171 188 0
174 188 0
175 188 0
176 188 0
177 188 0
-189 0
-183 188 -190 0
183 -188 -190 0
190 -188 -183 0
183 188 190 0
-4 -190 0
174 -191 -192 0
191 -174 -192 0
-174 -191 192 0
174 191 192 0
-1 -192 0
191 -175 -193 0
175 -191 -193 0
193 -191 -175 0
193 191 175 0
-2 193 0
-174 194 0
-175 194 0
-176 194 0
-177 194 0
174 175 176 177 -194 0
191 -194 -195 0
-191 194 -195 0
-191 -194 195 0
191 194 195 0
-3 195 0
174 196 0
175 196 0
176 196 0
177 196 0
-197 0
-191 196 -198 0
191 -196 -198 0
198 -196 -191 0
191 196 198 0
-4 -198 0
175 -199 -200 0
199 -175 -200 0
-175 -199 200 0
175 199 200 0
-1 -200 0
199 -176 -201 0
176 -199 -201 0
201 -199 -176 0
201 199 176 0
-2 201 0
-175 202 0
-176 202 0
-177 202 0
175 176 177 -202 0
199 -202 -203 0
-199 202 -203 0
-199 -202 203 0
199 202 203 0
-3 203 0
175 204 0
176 204 0
177 204 0
-175 -176 -177 -204 0
-199 204 -205 0
199 -204 -205 0
205 -204 -199 0
199 204 205 0
-4 -205 0
176 -206 -207 0
206 -176 -207 0
-176 -206 207 0
176 206 207 0
-1 -207 0
206 -177 -208 0
177 -206 -208 0
208 -206 -177 0
208 206 177 0
-2 208 0
206 -202 -209 0
202 -206 -209 0
-202 -206 209 0
206 202 209 0
-3 209 0
204 -206 -210 0
206 -204 -210 0
210 -204 -206 0
206 204 210 0
-4 -210 0
177 -211 -212 0
211 -177 -212 0
-177 -211 212 0
177 211 212 0
-1 -212 0
-175 211 -213 0
175 -211 -213 0
213 -211 -175 0
213 211 175 0
-2 213 0
211 -202 -214 0
202 -211 -214 0
-202 -211 214 0
211 202 214 0
-3 214 0
204 -211 -215 0
211 -204 -215 0
215 -204 -211 0
211 204 215 0
-4 -215 0
216 -217 -218 0
217 -216 -218 0
-216 -217 218 0
217 216 218 0
-1 -218 0
217 -219 -220 0
219 -217 -220 0
220 -217 -219 0
220 217 219 0
-2 220 0
-5 221 0
-146 221 0
-149 221 0
-216 221 0
-219 221 0
5 146 149 216 219 -221 0
217 -221 -222 0
-217 221 -222 0
-217 -221 222 0
217 221 222 0
-3 222 0
5 223 0
146 223 0
149 223 0
216 223 0
219 223 0
-224 0
-217 223 -225 0
217 -223 -225 0
225 -223 -217 0
217 223 225 0
-4 -225 0
219 -226 -227 0
226 -219 -227 0
-219 -226 227 0
219 226 227 0
-1 -227 0
-146 226 -228 0
146 -226 -228 0
228 -226 -146 0
228 226 146 0
-2 228 0
-5 229 0
-146 229 0
-149 229 0
-219 229 0
5 146 149 219 -229 0
226 -229 -230 0
-226 229 -230 0
-226 -229 230 0
226 229 230 0
-3 230 0
5 231 0
146 231 0
149 231 0
219 231 0
-232 0
-226 231 -233 0
226 -231 -233 0
233 -231 -226 0
226 231 233 0
-4 -233 0
234 -235 -236 0
235 -234 -236 0
-234 -235 236 0
235 234 236 0
-1 -236 0
235 -237 -238 0
237 -235 -238 0
238 -235 -237 0
238 235 237 0
-2 238 0
-174 239 0
-175 239 0
-176 239 0
-177 239 0
-234 239 0
-237 239 0
240 0
235 -239 -241 0
-235 239 -241 0
-235 -239 241 0
235 239 241 0
-3 241 0
174 242 0
175 242 0
176 242 0
177 242 0
234 242 0
237 242 0
-243 0
-235 242 -244 0
235 -242 -244 0
244 -242 -235 0
235 242 244 0
-4 -244 0
237 -245 -246 0
245 -237 -246 0
-237 -245 246 0
237 245 246 0
-1 -246 0
-174 245 -247 0
174 -245 -247 0
247 -245 -174 0
247 245 174 0
-2 247 0
-174 248 0
-175 248 0
-176 248 0
-177 248 0
-237 248 0
174 175 176 177 237 -248 0
245 -248 -249 0
-245 248 -249 0
-245 -248 249 0
245 248 249 0
-3 249 0
174 250 0
175 250 0
176 250 0
177 250 0
237 250 0
-251 0
-245 250 -252 0
245 -250 -252 0
252 -250 -245 0
245 250 252 0
-4 -252 0
253 -254 -255 0
254 -253 -255 0
-253 -254 255 0
254 253 255 0
-1 -255 0
254 -256 -257 0
256 -254 -257 0
257 -254 -256 0
257 254 256 0
-2 257 0
-103 258 0
-104 258 0
-105 258 0
-106 258 0
-253 258 0
-256 258 0
-259 258 0
-260 258 0
261 0
254 -258 -262 0
-254 258 -262 0
-254 -258 262 0
254 258 262 0
-3 262 0
103 263 0
104 263 0
105 263 0
106 263 0
253 263 0
256 263 0
259 263 0
260 263 0
-264 0
-254 263 -265 0
254 -263 -265 0
265 -263 -254 0
254 263 265 0
-4 -265 0
256 -266 -267 0
266 -256 -267 0
-256 -266 267 0
256 266 267 0
-1 -267 0
266 -259 -268 0
259 -266 -268 0
268 -266 -259 0
268 266 259 0
-2 268 0
-103 269 0
-104 269 0
-105 269 0
-106 269 0
-256 269 0
-259 269 0
-260 269 0
270 0
266 -269 -271 0
-266 269 -271 0
-266 -269 271 0
266 269 271 0
-3 271 0
103 272 0
104 272 0
105 272 0
106 272 0
256 272 0
259 272 0
260 272 0
-273 0
-266 272 -274 0
266 -272 -274 0
274 -272 -266 0
266 272 274 0
-4 -274 0
259 -275 -276 0
275 -259 -276 0
-259 -275 276 0
259 275 276 0
-1 -276 0
275 -260 -277 0
260 -275 -277 0
277 -275 -260 0
277 275 260 0
-2 277 0
-103 278 0
-104 278 0
-105 278 0
-106 278 0
-259 278 0
-260 278 0
279 0
275 -278 -280 0
-275 278 -280 0
-275 -278 280 0
275 278 280 0
-3 280 0
103 281 0
104 281 0
105 281 0
106 281 0
259 281 0
260 281 0
-282 0
-275 281 -283 0
275 -281 -283 0
283 -281 -275 0
275 281 283 0
-4 -283 0
260 -284 -285 0
284 -260 -285 0
-260 -284 285 0
260 284 285 0
-1 -285 0
-104 284 -286 0
104 -284 -286 0
286 -284 -104 0
286 284 104 0
-2 286 0
-103 287 0
-104 287 0
-105 287 0
-106 287 0
-260 287 0
103 104 105 106 260 -287 0
284 -287 -288 0
-284 287 -288 0
-284 -287 288 0
284 287 288 0
-3 288 0
103 289 0
104 289 0
105 289 0
106 289 0
260 289 0
-290 0
-284 289 -291 0
284 -289 -291 0
291 -289 -284 0
284 289 291 0
-4 -291 0
292 -293 -294 0
293 -292 -294 0
-292 -293 294 0
293 292 294 0
-1 -294 0
293 -295 -296 0
295 -293 -296 0
296 -293 -295 0
296 293 295 0
-2 296 0
-12 297 0
-15 297 0
-292 297 0
-295 297 0
-298 297 0
12 15 292 295 298 -297 0
293 -297 -299 0
-293 297 -299 0
-293 -297 299 0
293 297 299 0
-3 299 0
12 300 0
15 300 0
292 300 0
295 300 0
298 300 0
-301 0
-293 300 -302 0
293 -300 -302 0
302 -300 -293 0
293 300 302 0
-4 -302 0
295 -303 -304 0
303 -295 -304 0
-295 -303 304 0
295 303 304 0
-1 -304 0
303 -298 -305 0
298 -303 -305 0
305 -303 -298 0
305 303 298 0
-2 305 0
-12 306 0
-15 306 0
-295 306 0
-298 306 0
12 15 295 298 -306 0
303 -306 -307 0
-303 306 -307 0
-303 -306 307 0
303 306 307 0
-3 307 0
12 308 0
15 308 0
295 308 0
298 308 0
-309 0
-303 308 -310 0
303 -308 -310 0
310 -308 -303 0
303 308 310 0
-4 -310 0
298 -311 -312 0
311 -298 -312 0
-298 -311 312 0
298 311 312 0
-1 -312 0
-15 311 -313 0
15 -311 -313 0
313 -311 -15 0
313 311 15 0
-2 313 0
-12 314 0
-15 314 0
-298 314 0
12 15 298 -314 0
311 -314 -315 0
-311 314 -315 0
-311 -314 315 0
311 314 315 0
-3 315 0
12 316 0
15 316 0
298 316 0
-12 -15 -298 -316 0
-311 316 -317 0
311 -316 -317 0
317 -316 -311 0
311 316 317 0
-4 -317 0
-5 318 -319 0
5 -318 -319 0
-5 -318 319 0
5 318 319 0
-319 0
-9 320 -321 0
9 -320 -321 0
-9 -320 321 0
9 320 321 0
-321 0
-12 322 -323 0
12 -322 -323 0
-12 -322 323 0
12 322 323 0
-323 0
-15 324 -325 0
15 -324 -325 0
-15 -324 325 0
15 324 325 0
-325 0
-31 326 -327 0
31 -326 -327 0
-31 -326 327 0
31 326 327 0
-327 0
-34 328 -329 0
34 -328 -329 0
-34 -328 329 0
34 328 329 0
-329 0
-49 330 -331 0
49 -330 -331 0
-49 -330 331 0
49 330 331 0
-331 0
-52 332 -333 0
52 -332 -333 0
-52 -332 333 0
52 332 333 0
-333 0
-55 334 -335 0
55 -334 -335 0
-55 -334 335 0
55 334 335 0
-335 0
-56 336 -337 0
56 -336 -337 0
-56 -336 337 0
56 336 337 0
-337 0
-57 338 -339 0
57 -338 -339 0
-57 -338 339 0
57 338 339 0
-339 0
-58 340 -341 0
58 -340 -341 0
-58 -340 341 0
58 340 341 0
-341 0
-97 342 -343 0
97 -342 -343 0
-97 -342 343 0
97 342 343 0
-343 0
-100 344 -345 0
100 -344 -345 0
-100 -344 345 0
100 344 345 0
-345 0
-103 346 -347 0
103 -346 -347 0
-103 -346 347 0
103 346 347 0
-347 0
-104 348 -349 0
104 -348 -349 0
-104 -348 349 0
104 348 349 0
-349 0
-105 350 -351 0
105 -350 -351 0
-105 -350 351 0
105 350 351 0
-351 0
-106 352 -353 0
106 -352 -353 0
-106 -352 353 0
106 352 353 0
-353 0
-143 354 -355 0
143 -354 -355 0
-143 -354 355 0
143 354 355 0
-355 0
-146 356 -357 0
146 -356 -357 0
-146 -356 357 0
146 356 357 0
-357 0
-149 358 -359 0
149 -358 -359 0
-149 -358 359 0
149 358 359 0
-359 0
-168 360 -361 0
168 -360 -361 0
-168 -360 361 0
168 360 361 0
-361 0
-171 362 -363 0
171 -362 -363 0
-171 -362 363 0
171 362 363 0
-363 0
-174 364 -365 0
174 -364 -365 0
-174 -364 365 0
174 364 365 0
-365 0
-175 366 -367 0
175 -366 -367 0
-175 -366 367 0
175 366 367 0
-367 0
-176 368 -369 0
176 -368 -369 0
-176 -368 369 0
176 368 369 0
-369 0
-177 370 -371 0
177 -370 -371 0
-177 -370 371 0
177 370 371 0
-371 0
-216 372 -373 0
216 -372 -373 0
-216 -372 373 0
216 372 373 0
-373 0
-219 374 -375 0
219 -374 -375 0
-219 -374 375 0
219 374 375 0
-375 0
-234 376 -377 0
234 -376 -377 0
-234 -376 377 0
234 376 377 0
-377 0
-237 378 -379 0
237 -378 -379 0
-237 -378 379 0
237 378 379 0
-379 0
-253 380 -381 0
253 -380 -381 0
-253 -380 381 0
253 380 381 0
-381 0
-256 382 -383 0
256 -382 -383 0
-256 -382 383 0
256 382 383 0
-383 0
-259 384 -385 0
259 -384 -385 0
-259 -384 385 0
259 384 385 0
-385 0
-260 386 -387 0
260 -386 -387 0
-260 -386 387 0
260 386 387 0
-387 0
-292 388 -389 0
292 -388 -389 0
-292 -388 389 0
292 388 389 0
-389 0
-295 390 -391 0
295 -390 -391 0
-295 -390 391 0
295 390 391 0
-391 0
-298 392 -393 0
298 -392 -393 0
-298 -392 393 0
298 392 393 0
-393 0
6 0
-10 0
-32 0
-50 0
-98 0
-144 0
-169 0
-217 0
-235 0
-254 0
-293 0
